c 3 - XORSAT
p cnf 10 40
-1 -4 -6 0
-1 4 6 0
1 -4 6 0
1 4 -6 0
-3 -5 -8 0
-3 5 8 0
3 -5 8 0
3 5 -8 0
-1 -8 -10 0
-1 8 10 0
1 -8 10 0
1 8 -10 0
-6 -7 -9 0
-6 7 9 0
6 -7 9 0
6 7 -9 0
2 3 5 0
-2 -3 5 0
-2 3 -5 0
2 -3 -5 0
-2 -9 -10 0
-2 9 10 0
2 -9 10 0
2 9 -10 0
-3 -4 -7 0
-3 4 7 0
3 -4 7 0
3 4 -7 0
4 5 7 0
-4 -5 7 0
-4 5 -7 0
4 -5 -7 0
8 9 10 0
-8 -9 10 0
-8 9 -10 0
8 -9 -10 0
-1 -2 -6 0
-1 2 6 0
1 -2 6 0
1 2 -6 0
